n_res = 4;
rc = [ 14, 12, 12, 11 ];
n_tasks = 30;
d = [ 3, 4, 2, 10, 9, 5, 3, 9, 5, 7, 6, 1, 9, 4, 8, 9, 9, 4, 2, 4, 2, 5, 4, 9, 1, 10, 8, 7, 7, 8 ];
rr = [| 0, 4, 4, 6, 0, 4, 5, 4, 10, 8, 2, 0, 5, 1, 2, 5, 1, 0, 0, 9, 5, 0, 3, 0, 4, 6, 6, 6, 9, 0
      | 0, 9, 0, 2, 9, 0, 3, 0, 4, 0, 9, 0, 4, 0, 0, 0, 7, 10, 0, 3, 0, 3, 0, 3, 0, 0, 5, 0, 0, 0
      | 0, 1, 2, 10, 10, 0, 5, 6, 0, 9, 0, 4, 0, 0, 0, 0, 0, 6, 0, 0, 0, 0, 5, 6, 4, 0, 0, 0, 0, 4
      | 4, 4, 0, 0, 0, 0, 2, 0, 0, 0, 2, 0, 6, 0, 9, 1, 6, 0, 6, 0, 0, 1, 4, 8, 0, 0, 10, 0, 0, 0 |];
suc = [ { 2 }, 
        { 3 }, 
        { 4 }, 
        { 5 }, 
        { 6 }, 
        { 7 }, 
        { 8 }, 
        { 9 }, 
        { 10 }, 
        { 11 }, 
        { 12 }, 
        { 13 }, 
        { 14 }, 
        { 15 }, 
        { 16 }, 
        { 17 }, 
        { 18 }, 
        { 19 }, 
        { 20 }, 
        { 21 }, 
        { 22 }, 
        { 23 }, 
        { 24 }, 
        { 25 }, 
        { 26 }, 
        { 27 }, 
        { 28 }, 
        { 29 }, 
        { 30 }, 
        {  }]; 
